c "23247.clq"
p edge 196 2880
e 1 17
e 1 18
e 1 19
e 1 20
e 1 21
e 1 29
e 1 38
e 1 47
e 1 48
e 1 58
e 1 64
e 1 65
e 1 71
e 1 86
e 1 94
e 1 97
e 1 110
e 1 111
e 1 158
e 1 166
e 1 180
e 1 188
e 2 17
e 2 18
e 2 20
e 2 22
e 2 23
e 2 24
e 2 26
e 2 27
e 2 40
e 2 42
e 2 45
e 2 57
e 2 66
e 2 75
e 2 93
e 2 97
e 2 98
e 2 109
e 2 111
e 2 120
e 2 159
e 2 165
e 2 192
e 3 17
e 3 18
e 3 20
e 3 21
e 3 22
e 3 24
e 3 26
e 3 27
e 3 28
e 3 29
e 3 30
e 3 31
e 3 32
e 3 33
e 3 35
e 3 37
e 3 40
e 3 41
e 3 42
e 3 44
e 3 46
e 3 47
e 3 57
e 3 58
e 3 59
e 3 63
e 3 65
e 3 66
e 3 69
e 3 74
e 3 75
e 3 78
e 3 88
e 3 91
e 3 109
e 3 110
e 3 114
e 3 126
e 3 128
e 3 130
e 3 131
e 3 139
e 3 142
e 3 144
e 3 151
e 3 159
e 3 162
e 3 178
e 3 185
e 3 187
e 4 17
e 4 18
e 4 19
e 4 20
e 4 21
e 4 22
e 4 25
e 4 26
e 4 30
e 4 32
e 4 33
e 4 34
e 4 37
e 4 38
e 4 39
e 4 40
e 4 46
e 4 47
e 4 49
e 4 51
e 4 54
e 4 55
e 4 61
e 4 65
e 4 70
e 4 74
e 4 80
e 4 85
e 4 86
e 4 89
e 4 94
e 4 95
e 4 101
e 4 107
e 4 114
e 4 126
e 4 130
e 4 132
e 4 134
e 4 137
e 4 150
e 4 155
e 4 167
e 4 170
e 4 174
e 4 180
e 4 194
e 5 17
e 5 19
e 5 21
e 5 22
e 5 29
e 5 40
e 5 41
e 5 53
e 5 76
e 5 95
e 5 112
e 5 126
e 5 146
e 5 151
e 6 17
e 6 18
e 6 19
e 6 20
e 6 21
e 6 22
e 6 23
e 6 24
e 6 25
e 6 26
e 6 28
e 6 32
e 6 34
e 6 42
e 6 51
e 6 54
e 6 61
e 6 64
e 6 65
e 6 72
e 6 73
e 6 76
e 6 78
e 6 88
e 6 92
e 6 96
e 6 98
e 6 108
e 6 110
e 6 114
e 6 122
e 6 123
e 6 129
e 6 145
e 6 150
e 6 154
e 6 158
e 6 161
e 6 162
e 6 163
e 6 164
e 6 169
e 6 175
e 6 177
e 6 179
e 6 181
e 6 184
e 6 189
e 6 195
e 7 17
e 7 18
e 7 19
e 7 20
e 7 21
e 7 23
e 7 26
e 7 28
e 7 29
e 7 32
e 7 34
e 7 36
e 7 38
e 7 40
e 7 42
e 7 51
e 7 62
e 7 64
e 7 67
e 7 74
e 7 79
e 7 94
e 7 105
e 7 114
e 7 165
e 7 174
e 7 175
e 8 17
e 8 18
e 8 19
e 8 20
e 8 21
e 8 23
e 8 24
e 8 25
e 8 35
e 8 39
e 8 41
e 8 43
e 8 45
e 8 50
e 8 55
e 8 64
e 8 85
e 8 97
e 8 102
e 8 106
e 8 117
e 8 126
e 8 140
e 8 141
e 8 144
e 8 163
e 8 170
e 8 175
e 8 191
e 9 17
e 9 18
e 9 19
e 9 20
e 9 21
e 9 23
e 9 24
e 9 25
e 9 26
e 9 30
e 9 34
e 9 36
e 9 39
e 9 42
e 9 43
e 9 45
e 9 46
e 9 51
e 9 53
e 9 55
e 9 56
e 9 58
e 9 68
e 9 70
e 9 73
e 9 79
e 9 88
e 9 89
e 9 94
e 9 99
e 9 107
e 9 108
e 9 110
e 9 118
e 9 151
e 9 156
e 9 157
e 9 161
e 9 175
e 9 178
e 9 184
e 9 186
e 9 192
e 10 17
e 10 18
e 10 19
e 10 23
e 10 24
e 10 26
e 10 27
e 10 30
e 10 32
e 10 34
e 10 35
e 10 43
e 10 45
e 10 50
e 10 56
e 10 57
e 10 65
e 10 66
e 10 77
e 10 80
e 10 82
e 10 86
e 10 95
e 10 105
e 10 108
e 10 124
e 10 126
e 10 127
e 10 132
e 10 147
e 10 148
e 10 158
e 10 168
e 10 178
e 10 179
e 10 191
e 11 17
e 11 18
e 11 19
e 11 20
e 11 22
e 11 23
e 11 24
e 11 30
e 11 33
e 11 44
e 11 50
e 11 51
e 11 57
e 11 60
e 11 68
e 11 74
e 11 89
e 11 91
e 11 101
e 11 112
e 11 117
e 11 118
e 11 129
e 11 132
e 11 167
e 11 168
e 11 182
e 12 17
e 12 18
e 12 19
e 12 20
e 12 21
e 12 22
e 12 23
e 12 24
e 12 25
e 12 27
e 12 28
e 12 29
e 12 30
e 12 31
e 12 33
e 12 37
e 12 39
e 12 40
e 12 41
e 12 45
e 12 48
e 12 49
e 12 51
e 12 52
e 12 55
e 12 58
e 12 63
e 12 64
e 12 68
e 12 75
e 12 76
e 12 77
e 12 82
e 12 83
e 12 87
e 12 102
e 12 103
e 12 109
e 12 110
e 12 114
e 12 115
e 12 117
e 12 120
e 12 121
e 12 129
e 12 138
e 12 143
e 12 144
e 12 146
e 12 147
e 12 149
e 12 150
e 12 155
e 12 160
e 12 161
e 12 165
e 12 167
e 12 180
e 12 183
e 12 192
e 13 17
e 13 18
e 13 19
e 13 20
e 13 21
e 13 22
e 13 25
e 13 28
e 13 31
e 13 32
e 13 33
e 13 34
e 13 35
e 13 37
e 13 48
e 13 50
e 13 58
e 13 63
e 13 65
e 13 68
e 13 72
e 13 97
e 13 110
e 13 114
e 13 115
e 13 121
e 13 126
e 13 131
e 13 149
e 13 155
e 13 159
e 13 165
e 13 190
e 13 194
e 13 196
e 14 17
e 14 18
e 14 19
e 14 21
e 14 22
e 14 23
e 14 24
e 14 25
e 14 26
e 14 28
e 14 30
e 14 32
e 14 34
e 14 35
e 14 43
e 14 45
e 14 46
e 14 52
e 14 54
e 14 60
e 14 63
e 14 79
e 14 82
e 14 84
e 14 90
e 14 113
e 14 117
e 14 120
e 14 122
e 14 125
e 14 129
e 14 135
e 14 142
e 14 148
e 14 154
e 14 160
e 14 169
e 14 172
e 15 17
e 15 18
e 15 19
e 15 20
e 15 21
e 15 22
e 15 23
e 15 24
e 15 25
e 15 27
e 15 28
e 15 29
e 15 31
e 15 32
e 15 33
e 15 34
e 15 35
e 15 36
e 15 37
e 15 38
e 15 39
e 15 41
e 15 44
e 15 45
e 15 48
e 15 50
e 15 52
e 15 57
e 15 59
e 15 60
e 15 61
e 15 62
e 15 70
e 15 73
e 15 74
e 15 75
e 15 76
e 15 85
e 15 87
e 15 90
e 15 94
e 15 96
e 15 100
e 15 102
e 15 109
e 15 110
e 15 112
e 15 118
e 15 124
e 15 125
e 15 126
e 15 127
e 15 133
e 15 137
e 15 144
e 15 152
e 15 161
e 15 166
e 15 170
e 15 175
e 15 183
e 15 190
e 15 193
e 16 17
e 16 18
e 16 19
e 16 20
e 16 21
e 16 22
e 16 27
e 16 31
e 16 55
e 16 59
e 16 109
e 16 135
e 16 136
e 16 196
e 17 18
e 17 19
e 17 20
e 17 21
e 17 22
e 17 23
e 17 24
e 17 25
e 17 26
e 17 27
e 17 30
e 17 31
e 17 34
e 17 36
e 17 37
e 17 39
e 17 40
e 17 41
e 17 42
e 17 44
e 17 45
e 17 46
e 17 50
e 17 51
e 17 53
e 17 54
e 17 56
e 17 61
e 17 65
e 17 67
e 17 68
e 17 69
e 17 74
e 17 75
e 17 80
e 17 82
e 17 83
e 17 84
e 17 85
e 17 86
e 17 89
e 17 94
e 17 95
e 17 103
e 17 106
e 17 108
e 17 112
e 17 113
e 17 132
e 17 136
e 17 141
e 17 145
e 17 157
e 17 162
e 17 163
e 17 173
e 17 179
e 17 183
e 17 191
e 17 194
e 17 195
e 18 19
e 18 20
e 18 22
e 18 23
e 18 24
e 18 25
e 18 26
e 18 27
e 18 28
e 18 29
e 18 30
e 18 31
e 18 33
e 18 34
e 18 35
e 18 36
e 18 37
e 18 38
e 18 39
e 18 40
e 18 41
e 18 42
e 18 46
e 18 47
e 18 48
e 18 49
e 18 50
e 18 55
e 18 57
e 18 58
e 18 61
e 18 64
e 18 66
e 18 69
e 18 70
e 18 73
e 18 76
e 18 77
e 18 78
e 18 80
e 18 83
e 18 87
e 18 90
e 18 91
e 18 92
e 18 96
e 18 97
e 18 104
e 18 105
e 18 118
e 18 119
e 18 123
e 18 124
e 18 130
e 18 131
e 18 147
e 18 149
e 18 150
e 18 153
e 18 154
e 18 156
e 18 157
e 18 163
e 18 164
e 18 176
e 18 177
e 18 183
e 18 190
e 18 196
e 19 20
e 19 21
e 19 22
e 19 23
e 19 24
e 19 25
e 19 26
e 19 27
e 19 29
e 19 31
e 19 32
e 19 37
e 19 38
e 19 39
e 19 42
e 19 43
e 19 44
e 19 45
e 19 46
e 19 47
e 19 48
e 19 50
e 19 52
e 19 53
e 19 56
e 19 58
e 19 61
e 19 63
e 19 64
e 19 66
e 19 67
e 19 68
e 19 70
e 19 72
e 19 80
e 19 83
e 19 85
e 19 91
e 19 102
e 19 105
e 19 106
e 19 107
e 19 109
e 19 111
e 19 118
e 19 120
e 19 129
e 19 140
e 19 145
e 19 146
e 19 154
e 19 157
e 19 158
e 19 159
e 19 161
e 19 162
e 19 163
e 19 167
e 19 168
e 19 175
e 19 176
e 19 180
e 19 183
e 19 195
e 20 21
e 20 22
e 20 23
e 20 24
e 20 25
e 20 26
e 20 27
e 20 28
e 20 29
e 20 31
e 20 32
e 20 33
e 20 35
e 20 36
e 20 37
e 20 39
e 20 40
e 20 42
e 20 46
e 20 47
e 20 49
e 20 52
e 20 54
e 20 55
e 20 56
e 20 59
e 20 61
e 20 67
e 20 69
e 20 70
e 20 71
e 20 72
e 20 74
e 20 77
e 20 79
e 20 81
e 20 87
e 20 88
e 20 92
e 20 93
e 20 94
e 20 102
e 20 109
e 20 114
e 20 116
e 20 121
e 20 128
e 20 131
e 20 144
e 20 146
e 20 151
e 20 154
e 20 155
e 20 174
e 20 187
e 20 189
e 21 22
e 21 23
e 21 24
e 21 25
e 21 26
e 21 27
e 21 28
e 21 29
e 21 31
e 21 33
e 21 34
e 21 35
e 21 37
e 21 38
e 21 39
e 21 40
e 21 41
e 21 44
e 21 47
e 21 48
e 21 53
e 21 62
e 21 63
e 21 64
e 21 66
e 21 71
e 21 74
e 21 78
e 21 80
e 21 81
e 21 83
e 21 86
e 21 87
e 21 91
e 21 93
e 21 95
e 21 102
e 21 105
e 21 109
e 21 112
e 21 115
e 21 116
e 21 119
e 21 120
e 21 124
e 21 126
e 21 128
e 21 136
e 21 141
e 21 142
e 21 145
e 21 160
e 21 162
e 21 169
e 21 171
e 21 172
e 21 184
e 21 186
e 21 188
e 21 189
e 21 194
e 22 23
e 22 25
e 22 26
e 22 27
e 22 28
e 22 29
e 22 30
e 22 33
e 22 36
e 22 37
e 22 38
e 22 39
e 22 40
e 22 41
e 22 42
e 22 47
e 22 51
e 22 59
e 22 61
e 22 66
e 22 67
e 22 70
e 22 83
e 22 85
e 22 92
e 22 99
e 22 105
e 22 111
e 22 113
e 22 115
e 22 116
e 22 117
e 22 119
e 22 127
e 22 130
e 22 138
e 22 140
e 22 141
e 22 151
e 22 152
e 22 161
e 22 162
e 22 167
e 22 168
e 22 171
e 22 176
e 22 193
e 23 24
e 23 25
e 23 26
e 23 27
e 23 28
e 23 29
e 23 30
e 23 31
e 23 33
e 23 34
e 23 36
e 23 37
e 23 38
e 23 42
e 23 44
e 23 48
e 23 50
e 23 52
e 23 55
e 23 60
e 23 65
e 23 68
e 23 72
e 23 77
e 23 78
e 23 79
e 23 81
e 23 85
e 23 93
e 23 99
e 23 104
e 23 106
e 23 108
e 23 110
e 23 111
e 23 119
e 23 120
e 23 124
e 23 125
e 23 131
e 23 142
e 23 145
e 23 149
e 23 158
e 23 160
e 23 161
e 23 162
e 23 172
e 23 177
e 23 184
e 23 192
e 23 193
e 24 25
e 24 27
e 24 28
e 24 29
e 24 35
e 24 43
e 24 45
e 24 47
e 24 50
e 24 56
e 24 58
e 24 66
e 24 73
e 24 76
e 24 79
e 24 80
e 24 81
e 24 85
e 24 95
e 24 96
e 24 102
e 24 104
e 24 107
e 24 108
e 24 110
e 24 123
e 24 124
e 24 125
e 24 131
e 24 134
e 24 136
e 24 138
e 24 148
e 24 149
e 24 151
e 24 153
e 24 155
e 24 156
e 24 158
e 24 166
e 24 167
e 24 169
e 24 178
e 24 183
e 24 186
e 24 188
e 24 192
e 25 26
e 25 27
e 25 28
e 25 29
e 25 30
e 25 32
e 25 34
e 25 36
e 25 39
e 25 44
e 25 48
e 25 54
e 25 55
e 25 56
e 25 58
e 25 61
e 25 62
e 25 65
e 25 67
e 25 68
e 25 70
e 25 74
e 25 77
e 25 81
e 25 82
e 25 84
e 25 87
e 25 88
e 25 97
e 25 104
e 25 106
e 25 107
e 25 113
e 25 115
e 25 127
e 25 133
e 25 136
e 25 143
e 25 145
e 25 146
e 25 149
e 25 152
e 25 161
e 25 164
e 25 165
e 25 166
e 25 169
e 25 170
e 25 184
e 25 191
e 25 196
e 26 27
e 26 28
e 26 29
e 26 30
e 26 31
e 26 32
e 26 34
e 26 35
e 26 36
e 26 38
e 26 39
e 26 40
e 26 41
e 26 42
e 26 43
e 26 44
e 26 46
e 26 47
e 26 49
e 26 51
e 26 52
e 26 53
e 26 54
e 26 59
e 26 62
e 26 64
e 26 65
e 26 66
e 26 67
e 26 71
e 26 75
e 26 80
e 26 82
e 26 83
e 26 86
e 26 91
e 26 92
e 26 99
e 26 105
e 26 115
e 26 116
e 26 133
e 26 137
e 26 139
e 26 150
e 26 157
e 26 158
e 26 159
e 26 168
e 26 171
e 26 173
e 26 174
e 26 182
e 26 187
e 26 191
e 26 192
e 27 28
e 27 29
e 27 30
e 27 31
e 27 33
e 27 35
e 27 36
e 27 38
e 27 43
e 27 49
e 27 52
e 27 57
e 27 60
e 27 62
e 27 63
e 27 67
e 27 69
e 27 92
e 27 95
e 27 101
e 27 102
e 27 114
e 27 120
e 27 122
e 27 136
e 27 139
e 27 154
e 27 178
e 27 185
e 27 186
e 27 187
e 27 191
e 27 192
e 27 194
e 28 30
e 28 31
e 28 32
e 28 33
e 28 36
e 28 37
e 28 42
e 28 43
e 28 48
e 28 49
e 28 52
e 28 55
e 28 58
e 28 59
e 28 60
e 28 71
e 28 77
e 28 86
e 28 88
e 28 90
e 28 99
e 28 100
e 28 103
e 28 107
e 28 114
e 28 121
e 28 130
e 28 138
e 28 148
e 28 150
e 28 154
e 28 161
e 28 170
e 28 175
e 28 178
e 28 179
e 28 190
e 28 191
e 28 196
e 29 30
e 29 31
e 29 32
e 29 33
e 29 34
e 29 35
e 29 36
e 29 37
e 29 38
e 29 40
e 29 41
e 29 43
e 29 44
e 29 46
e 29 48
e 29 52
e 29 57
e 29 58
e 29 59
e 29 62
e 29 65
e 29 66
e 29 69
e 29 71
e 29 73
e 29 76
e 29 81
e 29 84
e 29 86
e 29 89
e 29 92
e 29 94
e 29 95
e 29 97
e 29 103
e 29 104
e 29 105
e 29 122
e 29 125
e 29 128
e 29 132
e 29 135
e 29 138
e 29 139
e 29 140
e 29 142
e 29 143
e 29 146
e 29 149
e 29 151
e 29 155
e 29 164
e 29 169
e 29 172
e 29 174
e 29 176
e 29 177
e 29 184
e 29 195
e 30 31
e 30 32
e 30 33
e 30 38
e 30 41
e 30 43
e 30 44
e 30 45
e 30 53
e 30 56
e 30 57
e 30 58
e 30 59
e 30 64
e 30 73
e 30 78
e 30 80
e 30 84
e 30 89
e 30 94
e 30 99
e 30 107
e 30 112
e 30 117
e 30 122
e 30 124
e 30 128
e 30 139
e 30 156
e 30 157
e 30 173
e 30 181
e 30 184
e 30 186
e 30 188
e 30 193
e 30 195
e 31 32
e 31 35
e 31 38
e 31 41
e 31 43
e 31 46
e 31 49
e 31 57
e 31 58
e 31 67
e 31 70
e 31 74
e 31 75
e 31 82
e 31 86
e 31 88
e 31 89
e 31 91
e 31 93
e 31 107
e 31 109
e 31 124
e 31 128
e 31 129
e 31 133
e 31 134
e 31 140
e 31 164
e 31 166
e 31 170
e 31 175
e 31 191
e 32 33
e 32 34
e 32 35
e 32 36
e 32 41
e 32 46
e 32 48
e 32 49
e 32 51
e 32 53
e 32 54
e 32 56
e 32 60
e 32 61
e 32 67
e 32 69
e 32 71
e 32 73
e 32 80
e 32 83
e 32 84
e 32 90
e 32 93
e 32 95
e 32 96
e 32 98
e 32 103
e 32 105
e 32 107
e 32 108
e 32 110
e 32 111
e 32 117
e 32 118
e 32 121
e 32 134
e 32 137
e 32 142
e 32 144
e 32 147
e 32 148
e 32 150
e 32 160
e 32 167
e 32 176
e 32 181
e 32 190
e 33 35
e 33 36
e 33 37
e 33 38
e 33 40
e 33 49
e 33 51
e 33 54
e 33 57
e 33 60
e 33 69
e 33 72
e 33 76
e 33 78
e 33 79
e 33 86
e 33 92
e 33 93
e 33 96
e 33 101
e 33 104
e 33 111
e 33 112
e 33 115
e 33 117
e 33 123
e 33 124
e 33 127
e 33 132
e 33 136
e 33 142
e 33 145
e 33 149
e 33 150
e 33 160
e 33 163
e 33 171
e 33 174
e 33 175
e 33 196
e 34 36
e 34 38
e 34 42
e 34 43
e 34 44
e 34 46
e 34 47
e 34 49
e 34 50
e 34 53
e 34 68
e 34 71
e 34 73
e 34 75
e 34 76
e 34 77
e 34 79
e 34 82
e 34 83
e 34 85
e 34 86
e 34 94
e 34 96
e 34 97
e 34 100
e 34 101
e 34 127
e 34 132
e 34 136
e 34 137
e 34 149
e 34 151
e 34 161
e 34 170
e 34 171
e 34 176
e 34 185
e 34 190
e 35 39
e 35 43
e 35 44
e 35 45
e 35 49
e 35 50
e 35 54
e 35 58
e 35 64
e 35 70
e 35 72
e 35 78
e 35 79
e 35 85
e 35 86
e 35 87
e 35 89
e 35 90
e 35 100
e 35 101
e 35 106
e 35 111
e 35 112
e 35 117
e 35 129
e 35 143
e 35 151
e 35 159
e 35 164
e 35 165
e 35 169
e 35 178
e 35 187
e 36 37
e 36 39
e 36 44
e 36 45
e 36 49
e 36 50
e 36 53
e 36 54
e 36 57
e 36 61
e 36 64
e 36 73
e 36 78
e 36 85
e 36 98
e 36 102
e 36 114
e 36 121
e 36 135
e 36 138
e 36 143
e 36 145
e 36 185
e 36 186
e 36 187
e 36 188
e 37 40
e 37 42
e 37 44
e 37 46
e 37 51
e 37 54
e 37 56
e 37 58
e 37 59
e 37 68
e 37 72
e 37 79
e 37 81
e 37 86
e 37 103
e 37 122
e 37 125
e 37 131
e 37 133
e 37 137
e 37 139
e 37 142
e 37 152
e 37 159
e 37 167
e 37 192
e 37 194
e 37 196
e 38 39
e 38 40
e 38 41
e 38 43
e 38 45
e 38 47
e 38 54
e 38 55
e 38 57
e 38 59
e 38 62
e 38 63
e 38 71
e 38 73
e 38 75
e 38 76
e 38 77
e 38 78
e 38 85
e 38 86
e 38 88
e 38 89
e 38 90
e 38 96
e 38 103
e 38 118
e 38 120
e 38 122
e 38 126
e 38 127
e 38 128
e 38 130
e 38 132
e 38 153
e 38 158
e 38 161
e 38 167
e 38 171
e 38 179
e 38 195
e 39 43
e 39 45
e 39 47
e 39 49
e 39 51
e 39 52
e 39 54
e 39 56
e 39 68
e 39 70
e 39 71
e 39 72
e 39 73
e 39 78
e 39 79
e 39 80
e 39 83
e 39 86
e 39 92
e 39 96
e 39 101
e 39 103
e 39 104
e 39 109
e 39 116
e 39 118
e 39 121
e 39 129
e 39 139
e 39 155
e 39 156
e 39 169
e 39 175
e 40 41
e 40 42
e 40 46
e 40 47
e 40 48
e 40 49
e 40 50
e 40 51
e 40 54
e 40 55
e 40 63
e 40 74
e 40 75
e 40 77
e 40 79
e 40 87
e 40 88
e 40 90
e 40 93
e 40 95
e 40 96
e 40 97
e 40 101
e 40 110
e 40 111
e 40 113
e 40 115
e 40 121
e 40 131
e 40 132
e 40 133
e 40 135
e 40 136
e 40 148
e 40 150
e 40 152
e 40 153
e 40 162
e 40 165
e 40 178
e 40 186
e 40 187
e 40 188
e 40 195
e 41 46
e 41 55
e 41 56
e 41 60
e 41 65
e 41 68
e 41 71
e 41 72
e 41 83
e 41 85
e 41 102
e 41 110
e 41 113
e 41 121
e 41 148
e 41 162
e 41 167
e 41 171
e 41 173
e 41 179
e 41 180
e 41 188
e 41 192
e 42 47
e 42 48
e 42 52
e 42 55
e 42 60
e 42 62
e 42 68
e 42 78
e 42 84
e 42 87
e 42 88
e 42 90
e 42 91
e 42 93
e 42 97
e 42 98
e 42 106
e 42 131
e 42 148
e 42 151
e 42 152
e 42 154
e 42 157
e 43 44
e 43 47
e 43 48
e 43 51
e 43 52
e 43 53
e 43 54
e 43 60
e 43 66
e 43 70
e 43 77
e 43 78
e 43 91
e 43 96
e 43 98
e 43 100
e 43 101
e 43 104
e 43 113
e 43 116
e 43 120
e 43 123
e 43 130
e 43 134
e 43 139
e 43 141
e 43 142
e 43 144
e 43 147
e 43 152
e 43 154
e 43 156
e 43 159
e 43 163
e 43 164
e 43 175
e 43 177
e 43 180
e 43 181
e 43 186
e 43 190
e 43 193
e 44 45
e 44 48
e 44 53
e 44 59
e 44 63
e 44 64
e 44 75
e 44 76
e 44 78
e 44 84
e 44 91
e 44 96
e 44 116
e 44 121
e 44 125
e 44 157
e 44 171
e 44 183
e 44 190
e 45 49
e 45 50
e 45 56
e 45 60
e 45 65
e 45 66
e 45 80
e 45 111
e 45 122
e 45 132
e 45 133
e 45 137
e 45 152
e 45 159
e 45 177
e 46 52
e 46 53
e 46 56
e 46 59
e 46 60
e 46 61
e 46 67
e 46 72
e 46 74
e 46 75
e 46 76
e 46 79
e 46 82
e 46 92
e 46 98
e 46 102
e 46 107
e 46 117
e 46 132
e 46 136
e 46 157
e 46 166
e 46 171
e 46 183
e 46 189
e 47 53
e 47 55
e 47 57
e 47 62
e 47 63
e 47 65
e 47 66
e 47 67
e 47 71
e 47 76
e 47 80
e 47 83
e 47 90
e 47 99
e 47 101
e 47 105
e 47 117
e 47 118
e 47 119
e 47 125
e 47 129
e 47 134
e 47 140
e 47 141
e 47 161
e 47 166
e 47 167
e 47 174
e 47 175
e 47 180
e 47 181
e 47 186
e 48 53
e 48 56
e 48 63
e 48 64
e 48 69
e 48 71
e 48 82
e 48 84
e 48 88
e 48 90
e 48 91
e 48 93
e 48 94
e 48 103
e 48 108
e 48 126
e 48 130
e 48 134
e 48 141
e 48 163
e 48 173
e 48 186
e 49 50
e 49 51
e 49 53
e 49 57
e 49 59
e 49 61
e 49 62
e 49 66
e 49 69
e 49 70
e 49 81
e 49 82
e 49 91
e 49 92
e 49 98
e 49 102
e 49 104
e 49 107
e 49 111
e 49 118
e 49 123
e 49 125
e 49 127
e 49 128
e 49 140
e 49 142
e 49 143
e 49 157
e 49 158
e 49 182
e 49 186
e 49 195
e 50 52
e 50 56
e 50 59
e 50 63
e 50 68
e 50 82
e 50 91
e 50 103
e 50 107
e 50 112
e 50 119
e 50 123
e 50 135
e 50 138
e 50 163
e 50 173
e 50 195
e 51 52
e 51 62
e 51 63
e 51 64
e 51 69
e 51 70
e 51 72
e 51 73
e 51 80
e 51 82
e 51 84
e 51 87
e 51 94
e 51 97
e 51 98
e 51 107
e 51 109
e 51 127
e 51 134
e 51 142
e 51 147
e 51 153
e 51 185
e 52 62
e 52 79
e 52 90
e 52 114
e 52 115
e 52 119
e 52 122
e 52 135
e 52 143
e 52 165
e 53 66
e 53 69
e 53 81
e 53 107
e 53 109
e 53 117
e 53 123
e 53 132
e 53 147
e 53 154
e 53 160
e 53 176
e 54 55
e 54 60
e 54 62
e 54 68
e 54 72
e 54 73
e 54 75
e 54 78
e 54 83
e 54 84
e 54 88
e 54 90
e 54 102
e 54 108
e 54 136
e 54 146
e 54 148
e 54 150
e 54 153
e 54 156
e 54 160
e 54 176
e 54 193
e 55 71
e 55 88
e 55 99
e 55 103
e 55 128
e 55 132
e 55 135
e 55 155
e 55 156
e 55 158
e 55 162
e 55 164
e 55 175
e 55 177
e 55 184
e 56 57
e 56 59
e 56 60
e 56 81
e 56 84
e 56 85
e 56 92
e 56 94
e 56 111
e 56 127
e 56 133
e 56 136
e 56 138
e 56 147
e 56 151
e 56 155
e 56 173
e 57 58
e 57 63
e 57 66
e 57 67
e 57 74
e 57 82
e 57 83
e 57 87
e 57 105
e 57 106
e 57 119
e 57 128
e 57 148
e 57 170
e 57 171
e 57 179
e 57 182
e 58 60
e 58 61
e 58 62
e 58 67
e 58 69
e 58 72
e 58 92
e 58 94
e 58 95
e 58 98
e 58 101
e 58 105
e 58 115
e 58 122
e 58 123
e 58 127
e 58 130
e 58 131
e 58 134
e 58 136
e 58 137
e 58 139
e 58 141
e 58 153
e 58 166
e 58 196
e 59 61
e 59 69
e 59 77
e 59 81
e 59 95
e 59 129
e 59 132
e 59 138
e 59 157
e 59 165
e 59 170
e 59 175
e 59 190
e 60 61
e 60 62
e 60 65
e 60 74
e 60 78
e 60 80
e 60 81
e 60 90
e 60 98
e 60 102
e 60 106
e 60 158
e 60 174
e 60 179
e 60 184
e 60 194
e 60 195
e 61 64
e 61 69
e 61 72
e 61 76
e 61 81
e 61 93
e 61 99
e 61 119
e 61 137
e 61 147
e 61 152
e 61 154
e 61 155
e 61 157
e 61 168
e 61 191
e 61 193
e 61 194
e 61 196
e 62 63
e 62 65
e 62 70
e 62 73
e 62 74
e 62 81
e 62 87
e 62 88
e 62 91
e 62 94
e 62 95
e 62 96
e 62 106
e 62 107
e 62 109
e 62 110
e 62 121
e 62 122
e 62 136
e 62 137
e 62 139
e 62 145
e 62 156
e 62 161
e 62 169
e 62 190
e 63 87
e 63 116
e 63 135
e 63 141
e 63 164
e 63 168
e 64 67
e 64 70
e 64 74
e 64 75
e 64 77
e 64 84
e 64 89
e 64 92
e 64 115
e 64 126
e 64 137
e 64 138
e 64 159
e 64 170
e 64 181
e 64 185
e 64 188
e 65 69
e 65 81
e 65 93
e 65 101
e 65 106
e 65 120
e 65 121
e 65 124
e 65 127
e 65 129
e 65 143
e 65 162
e 65 167
e 65 173
e 65 176
e 66 67
e 66 87
e 66 89
e 66 101
e 66 102
e 66 104
e 66 121
e 66 123
e 66 125
e 66 129
e 66 160
e 66 163
e 66 164
e 67 68
e 67 71
e 67 77
e 67 79
e 67 82
e 67 89
e 67 96
e 67 100
e 67 113
e 67 114
e 67 120
e 67 122
e 67 135
e 67 137
e 67 152
e 67 156
e 67 158
e 67 168
e 67 176
e 67 182
e 68 76
e 68 77
e 68 98
e 68 123
e 68 166
e 68 174
e 68 176
e 68 183
e 68 189
e 69 73
e 69 84
e 69 94
e 69 96
e 69 99
e 69 104
e 69 110
e 69 111
e 69 117
e 69 129
e 69 146
e 69 179
e 69 182
e 70 71
e 70 75
e 70 79
e 70 83
e 70 90
e 70 104
e 70 106
e 70 113
e 70 156
e 70 173
e 70 176
e 70 180
e 70 185
e 70 187
e 70 193
e 71 72
e 71 81
e 71 99
e 71 100
e 71 113
e 71 125
e 71 132
e 71 133
e 71 143
e 71 150
e 71 163
e 71 167
e 71 181
e 72 85
e 72 90
e 72 100
e 72 103
e 72 111
e 72 115
e 72 119
e 72 126
e 72 142
e 72 144
e 72 155
e 72 159
e 72 163
e 72 167
e 72 168
e 72 170
e 72 171
e 72 174
e 72 176
e 72 179
e 73 75
e 73 76
e 73 77
e 73 84
e 73 97
e 73 99
e 73 116
e 73 117
e 73 124
e 73 126
e 73 130
e 73 135
e 73 142
e 73 143
e 73 155
e 73 183
e 74 82
e 74 88
e 74 98
e 74 106
e 74 109
e 74 111
e 74 112
e 74 113
e 74 115
e 74 121
e 74 123
e 74 127
e 74 130
e 74 135
e 74 143
e 74 144
e 74 145
e 74 147
e 74 149
e 74 154
e 74 163
e 74 172
e 74 191
e 75 85
e 75 97
e 75 99
e 75 103
e 75 104
e 75 113
e 75 117
e 75 119
e 75 127
e 75 133
e 75 135
e 75 153
e 75 166
e 75 174
e 75 177
e 75 178
e 75 185
e 75 186
e 76 87
e 76 99
e 76 103
e 76 110
e 76 116
e 76 118
e 76 135
e 76 166
e 76 174
e 76 180
e 76 181
e 76 185
e 76 191
e 76 193
e 77 83
e 77 89
e 77 100
e 77 101
e 77 108
e 77 112
e 77 130
e 77 139
e 77 140
e 77 146
e 77 182
e 77 194
e 78 84
e 78 105
e 78 118
e 78 128
e 78 133
e 78 135
e 78 139
e 78 141
e 78 149
e 78 162
e 78 189
e 79 80
e 79 87
e 79 95
e 79 96
e 79 103
e 79 112
e 79 121
e 79 126
e 79 143
e 79 150
e 79 152
e 79 155
e 79 169
e 79 177
e 80 100
e 80 104
e 80 125
e 80 136
e 80 140
e 81 86
e 81 89
e 81 91
e 81 93
e 81 97
e 81 107
e 81 109
e 81 124
e 81 128
e 81 134
e 81 141
e 81 146
e 81 168
e 81 171
e 81 179
e 81 195
e 82 98
e 82 100
e 82 116
e 82 126
e 82 128
e 82 140
e 82 155
e 82 156
e 82 169
e 82 172
e 82 190
e 82 193
e 83 89
e 83 92
e 83 93
e 83 95
e 83 99
e 83 106
e 83 119
e 83 133
e 83 141
e 83 152
e 83 166
e 83 168
e 83 169
e 83 174
e 83 175
e 83 188
e 84 93
e 84 108
e 85 89
e 85 98
e 85 109
e 85 111
e 85 112
e 85 114
e 85 120
e 85 131
e 85 139
e 85 144
e 85 150
e 85 174
e 85 188
e 86 88
e 86 91
e 86 92
e 86 93
e 86 100
e 86 114
e 86 130
e 86 143
e 86 147
e 86 152
e 86 160
e 86 169
e 86 183
e 87 95
e 87 112
e 87 134
e 87 138
e 87 140
e 87 152
e 87 157
e 87 163
e 87 181
e 88 128
e 88 188
e 89 97
e 89 104
e 89 105
e 89 116
e 89 121
e 89 133
e 89 149
e 89 173
e 90 97
e 90 100
e 90 114
e 90 119
e 90 120
e 90 141
e 90 156
e 90 184
e 91 106
e 91 118
e 91 125
e 91 137
e 91 171
e 91 177
e 92 100
e 92 115
e 92 124
e 92 140
e 92 160
e 92 165
e 92 168
e 92 171
e 92 189
e 93 112
e 93 122
e 93 148
e 93 153
e 94 101
e 94 108
e 94 113
e 94 119
e 94 125
e 94 131
e 94 132
e 94 138
e 94 139
e 94 145
e 94 150
e 94 164
e 95 100
e 95 105
e 95 108
e 95 128
e 95 176
e 95 189
e 96 98
e 96 105
e 96 110
e 96 120
e 96 129
e 96 130
e 96 133
e 96 134
e 96 139
e 96 163
e 96 172
e 96 176
e 96 187
e 97 137
e 97 152
e 97 157
e 97 168
e 97 178
e 97 192
e 98 99
e 98 100
e 98 113
e 98 115
e 98 129
e 98 130
e 98 154
e 98 177
e 98 185
e 98 191
e 99 104
e 99 106
e 99 116
e 99 123
e 99 124
e 99 143
e 99 153
e 99 172
e 100 101
e 100 102
e 100 172
e 100 174
e 100 177
e 100 180
e 100 186
e 101 103
e 101 108
e 101 118
e 101 124
e 101 125
e 101 148
e 101 186
e 102 108
e 102 134
e 102 147
e 102 157
e 102 160
e 102 173
e 103 113
e 103 120
e 103 148
e 103 153
e 103 169
e 104 153
e 104 179
e 104 182
e 104 188
e 104 193
e 104 194
e 105 148
e 105 165
e 105 174
e 105 192
e 106 108
e 106 114
e 106 120
e 106 134
e 106 142
e 106 144
e 106 162
e 106 170
e 106 173
e 106 177
e 106 178
e 106 181
e 106 182
e 106 184
e 106 187
e 106 190
e 107 112
e 107 115
e 107 127
e 107 138
e 107 172
e 108 113
e 108 118
e 108 119
e 108 122
e 108 135
e 108 143
e 108 157
e 108 164
e 108 179
e 108 181
e 108 194
e 109 116
e 110 117
e 110 118
e 110 129
e 110 137
e 110 144
e 110 148
e 110 158
e 110 159
e 110 166
e 111 119
e 111 127
e 111 137
e 111 148
e 111 149
e 111 171
e 112 123
e 112 128
e 112 131
e 112 141
e 112 146
e 112 168
e 112 169
e 112 182
e 112 193
e 113 116
e 113 124
e 113 125
e 113 155
e 113 162
e 113 165
e 113 184
e 113 185
e 113 187
e 114 116
e 114 122
e 114 155
e 114 190
e 114 193
e 115 130
e 115 180
e 115 196
e 116 147
e 116 153
e 116 154
e 116 162
e 116 189
e 117 122
e 117 145
e 117 146
e 117 147
e 117 165
e 117 183
e 118 140
e 118 144
e 118 159
e 118 178
e 118 188
e 119 123
e 119 144
e 119 151
e 119 153
e 119 160
e 119 162
e 119 173
e 119 176
e 119 180
e 119 195
e 120 126
e 120 140
e 120 156
e 120 170
e 120 182
e 122 123
e 122 133
e 122 141
e 122 159
e 122 165
e 122 184
e 122 185
e 123 131
e 123 138
e 123 151
e 123 159
e 123 192
e 124 136
e 124 138
e 124 145
e 124 192
e 125 147
e 125 180
e 126 131
e 126 133
e 126 152
e 127 139
e 127 142
e 127 146
e 127 178
e 128 143
e 128 150
e 128 154
e 128 168
e 128 177
e 129 140
e 129 151
e 129 181
e 129 191
e 130 131
e 130 134
e 130 150
e 130 165
e 130 189
e 131 140
e 131 146
e 131 171
e 132 145
e 132 146
e 132 170
e 132 173
e 132 177
e 133 134
e 133 144
e 133 187
e 134 138
e 134 178
e 134 181
e 134 194
e 135 142
e 135 149
e 135 166
e 135 191
e 136 151
e 136 153
e 136 161
e 136 164
e 136 167
e 136 181
e 136 183
e 136 193
e 136 195
e 137 141
e 137 156
e 137 172
e 137 182
e 137 189
e 138 154
e 138 191
e 139 144
e 139 145
e 139 161
e 139 181
e 139 182
e 139 189
e 139 195
e 140 147
e 140 169
e 140 178
e 140 187
e 140 196
e 141 172
e 141 183
e 141 195
e 142 194
e 143 145
e 143 146
e 143 158
e 144 164
e 145 158
e 145 159
e 145 179
e 146 149
e 146 170
e 146 179
e 146 181
e 147 149
e 147 185
e 147 189
e 148 151
e 148 158
e 148 190
e 149 160
e 149 172
e 149 182
e 150 153
e 150 163
e 150 167
e 150 173
e 151 164
e 151 193
e 153 161
e 153 166
e 153 172
e 154 156
e 154 165
e 155 160
e 156 194
e 157 185
e 157 190
e 158 160
e 158 192
e 159 170
e 159 182
e 159 183
e 159 184
e 159 193
e 160 166
e 160 186
e 162 164
e 163 182
e 163 184
e 163 187
e 164 173
e 164 178
e 164 180
e 164 188
e 164 194
e 164 196
e 165 172
e 166 168
e 166 172
e 167 189
e 168 187
e 168 192
e 170 183
e 170 184
e 170 186
e 171 185
e 171 189
e 172 175
e 172 177
e 172 179
e 173 180
e 173 185
e 175 189
e 176 188
e 176 196
e 177 191
e 179 180
e 181 187
e 182 188
e 182 190
e 182 192
e 184 196
e 187 194
e 188 196
e 190 195
e 194 196
